NAME : portcgen-10-20
COMMENT : portcgen N=10, seed=20
TYPE : TSP
DIMENSION : 10
EDGE_WEIGHT_TYPE : EUC_2D
NODE_COORD_SECTION
1 45 88
2 101 73
3 95 97
4 81 52
5 88 66
6 84 6
7 95 87
8 97 58
9 78 68
10 94 55
